unsat
(:SPACER-concretize                   16
 :SPACER-conj                         3
 :SPACER-expand-pob-undef             46
 :SPACER-inductive-gen                167
 :SPACER-inductive-gen-weaken-fail    362
 :SPACER-inductive-gen-weaken-success 68
 :SPACER-inductive-level              5
 :SPACER-max-depth                    9
 :SPACER-max-query-lvl                9
 :SPACER-non-local-gen                19
 :SPACER-num-active-lemmas            60
 :SPACER-num-ctp-blocked              89
 :SPACER-num-invariants               95
 :SPACER-num-is_invariant             591
 :SPACER-num-lemma-jumped             19
 :SPACER-num-lemmas                   191
 :SPACER-num-non-lin                  1
 :SPACER-num-pobs                     122
 :SPACER-num-propagations             323
 :SPACER-num-queries                  146
 :SPACER-num-reach-queries            5
 :SPACER-num-reuse-reach-facts        5
 :SPACER-subsume-failed               13
 :SPACER-subsume-pob                  23
 :SPACER-subsume-success              25
 :added-eqs                           174994
 :arith-assert-diseq                  66798
 :arith-assert-lower                  189366
 :arith-assert-upper                  252032
 :arith-bound-prop                    20162
 :arith-branch-var                    198
 :arith-conflicts                     626
 :arith-eq-adapter                    24122
 :arith-fixed-eqs                     52056
 :arith-gcd-conflicts                 124
 :arith-gcd-tests                     3332
 :arith-gomory-cuts                   58
 :arith-ineq-splits                   198
 :arith-num-rows                      212
 :arith-offset-eqs                    20260
 :arith-patches                       434
 :arith-patches_succ                  148
 :arith-pivots                        19728
 :arith-row-summations                221880
 :arith-tableau-max-columns           350
 :arith-tableau-max-rows              212
 :conflicts                           4322
 :decisions                           582950
 :del-clause                          59912
 :final-checks                        2188
 :iuc_solver.num_proxies              832
 :max-memory                          62.88
 :memory                              53.66
 :minimized-lits                      1208
 :mk-bool-var                         67908
 :mk-clause                           73426
 :num-allocs                          3933517652
 :num-checks                          4072
 :pool_solver.checks                  2036
 :pool_solver.checks.sat              488
 :pool_solver.checks.undef            401
 :propagations                        1211280
 :rlimit-count                        7795305
 :time                                3.82
 :time.iuc_solver.get_iuc             0.35
 :time.iuc_solver.get_iuc.hyp_reduce1 0.15
 :time.iuc_solver.get_iuc.hyp_reduce2 0.20
 :time.iuc_solver.get_iuc.learn_core  0.05
 :time.pool_solver.proof              0.05
 :time.pool_solver.smt.total          2.35
 :time.pool_solver.smt.total.sat      0.82
 :time.pool_solver.smt.total.undef    0.65
 :time.spacer.ctp                     0.03
 :time.spacer.init_rules              0.00
 :time.spacer.mbp                     0.04
 :time.spacer.solve                   3.73
 :time.spacer.solve.propagate         0.63
 :time.spacer.solve.reach             3.10
 :time.spacer.solve.reach.children    0.12
 :time.spacer.solve.reach.cluster     0.38
 :time.spacer.solve.reach.gen.global  0.22
 :time.spacer.solve.reach.gen.ind     1.12
 :time.spacer.solve.reach.is-reach    0.01)
(:max-memory   62.88
 :memory       53.66
 :num-allocs   3933517652
 :rlimit-count 7795305
 :time         3.82
 :total-time   3.83)
